1 3 29 82 31 79 77 100 
18 10 99 126 35 52 8 107 
51 20 39 89 66 45 58 111 
25 94 128 38 46 61 33 72 
59 64 119 110 9 24 4 43 
57 90 56 5 122 116 113 84 
95 12 88 74 92 23 41 93 
81 28 105 83 127 21 97 85 
68 115 124 106 86 44 67 47 
76 54 118 101 71 32 108 114 
109 11 50 80 123 117 70 30 
121 65 48 60 40 27 96 112 
62 102 2 91 34 37 42 73 
16 13 63 17 22 103 26 49 
120 104 6 75 7 78 15 69 
36 55 19 125 14 98 87 53 
